1,1
2,1
3,1
4,1
5,1
6,0
7,0
8,0
9,0
10,0
11,0
12,0
13,0
14,0
15,0
16,0
17,0
18,0
19,0
20,0
21,0
22,0
23,0
24,0
25,0
26,0
27,0
28,0
29,0
30,0
31,0
32,0
33,0
34,0
35,0
36,0
37,0
38,0
39,0
40,0
41,0
42,0
43,0
44,0
45,0
46,0
47,0
48,0
49,0
50,0
51,0
52,0
53,0
54,0
55,0
56,0
57,0
58,0
59,0
60,0
61,0
62,0
63,1
64,1
65,1
66,1
67,1
68,0
69,0
70,0
71,0
72,0
73,0
74,0
75,1
76,0
77,1
78,0
79,0
80,1
81,0
82,0
83,0
84,0
85,0
86,0
87,0
88,1
89,1
90,0
91,0
92,0
93,1
94,0
95,0
96,1
97,1
98,1
99,1
100,1
101,1
102,1
103,0
104,1
105,0
106,1
107,1
108,1
109,1
110,0
111,1
112,1
113,1
114,0
115,1
116,1
117,0
118,1
119,1
120,1
121,1
122,1
123,1
124,1
125,1
126,1
127,1
128,1
129,1
130,1
131,1
132,0
133,0
134,0
135,0
136,0
137,0
138,0
139,1
140,1
141,1
142,1
143,1
144,1
145,1
146,1
147,1
148,1
149,1
150,1
151,0
152,0
153,0
154,0
155,0
156,0
157,0
158,1
159,0
160,0
161,1
162,1
163,1
164,0
165,0
166,1
167,1
168,1
169,0
170,1
171,1
172,0
173,1
174,1
175,1
176,1
177,1
178,1
179,1
180,1
181,1
182,1
183,1
184,1
185,0
186,1
187,0
188,0
189,0
190,0
191,0
192,0
193,0
194,0
195,0
196,0
197,0
198,1
199,1
200,0
201,0
202,1
203,0
204,1
205,1
206,0
207,0
208,0
209,1
210,1
211,0
212,0
213,0
214,0
215,0
216,1
217,1
218,1
219,0
220,0
221,1
222,1
223,0
224,0
225,0
226,0
227,0
228,1
229,1
230,1
231,1
232,1
233,1
234,1
235,1
236,1
237,1
238,0
239,0
240,1
241,0
242,0
243,1
244,1
245,0
246,1
247,1
248,1
249,0
250,1
251,0
252,0
253,0
254,0
255,1
256,1
257,0
258,0
259,1
260,1
261,1
262,1
263,0
264,0
265,0
266,0
267,0
268,0
269,0
270,0
271,0
272,0
273,0
274,0
275,0
276,0
277,0
278,1
279,0
280,1
281,0
282,0
283,0
284,0
285,0
286,0
287,1
288,1
289,1
290,0
291,0
292,1
293,1
294,0
295,0
296,0
297,0
298,0
299,0
300,0
301,0
302,0
303,0
304,0
305,1
306,0
307,1
308,1
309,0
310,0
311,0
312,0
313,1
314,0
315,0
316,0
317,0
318,0
319,0
320,0
321,0
322,0
323,1
324,1
325,1
326,1
327,0
328,0
329,0
330,0
331,0
332,0
333,1
334,1
335,1
336,1
337,1
338,1
339,1
340,1
341,1
342,1
343,0
344,0
345,0
346,1
347,1
348,1
349,1
350,0
351,1
352,0
353,0
354,1
355,1
356,0
357,0
358,1
359,1
360,0
361,0
362,0
363,1
364,1
365,1
366,1
367,1
368,0
369,0
370,0
371,0
372,1
373,1
374,0
375,0
376,0
377,0
378,0
379,0
380,0
381,1
382,1
383,1
384,1
385,1
386,1
387,1
388,1
389,0
390,0
391,0
392,0
393,0
394,0
395,0
396,0
397,0
398,1
399,0
400,0
401,1
402,1
403,1
404,1
405,1
406,1
407,0
408,1
409,1
410,1
411,1
412,0
413,0
414,0
415,1
416,0
417,1
418,1
419,0
420,0
421,0
422,0
423,0
424,1
425,0
426,0
427,0
428,0
429,0
430,0
431,0
432,0
433,0
434,1
435,1
436,1
437,0
438,0
439,0
440,0
441,0
442,1
443,0
444,1
445,0
446,0
447,0
448,1
449,0
450,1
451,1
452,1
453,1
454,1
455,0
456,0
457,0
458,0
459,0
460,0
461,0
462,0
463,0
464,0
465,0
466,0
467,0
468,0
469,1
470,1
471,1
472,0
473,0
474,0
475,0
476,0
477,0
478,0
479,0
480,0
481,0
482,0
483,0
484,0
485,0
486,0
487,1
488,0
489,1
490,0
491,0
492,0
493,1
494,0
495,0
496,1
497,1
498,1
499,0
500,1
501,0
502,0
503,0
504,0
505,0
506,0
507,0
508,0
509,1
510,1
511,0
512,0
513,0
514,0
515,0
516,0
517,0
518,0
519,0
520,0
521,0
522,0
523,0
524,1
525,1
526,1
527,1
528,1
529,1
530,1
531,0
532,0
533,1
534,1
535,0
536,0
537,1
538,0
539,0
540,0
541,0
542,0
543,0
544,0
545,0
546,0
547,1
548,0
549,0
550,0
551,1
552,0
553,0
554,0
555,0
556,1
557,0
558,0
559,0
560,0
561,0
562,1
563,1
564,1
565,0
566,0
567,0
568,0
569,0
570,1
571,1
572,1
573,0
574,0
575,0
576,0
577,0
578,0
579,0
580,0
581,1
582,0
583,0
584,1
585,1
586,1
587,1
588,0
589,1
590,1
591,0
592,0
593,0
594,0
595,0
596,0
597,0
598,0
599,0
600,0
601,0
602,0
603,0
604,0
605,0
606,0
607,0
608,0
609,0
610,0
611,0
612,0
613,0
614,0
615,0
616,1
617,0
618,1
619,0
620,0
621,1
622,0
623,0
624,0
625,0
626,0
627,0
628,0
629,0
630,0
631,0
632,1
633,0
634,0
635,0
636,1
637,0
638,0
639,0
640,0
641,0
642,0
643,0
644,0
645,0
646,1
647,1
648,0
649,0
650,0
651,0
652,0
653,0
654,0
655,0
656,1
657,1
658,0
659,1
660,1
661,1
662,1
663,1
664,1
665,1
666,1
667,1
668,0
669,0
670,0
671,0
672,0
673,1
674,1
675,1
676,1
677,1
678,1
679,1
680,0
681,0
682,1
683,1
684,1
685,0
686,0
687,1
688,1
689,0
690,0
691,1
692,1
693,1
694,1
695,1
696,1
697,1
698,0
699,0
700,0
701,1
702,1
703,0
704,0
705,1
706,0
707,0
708,1
709,1
710,0
711,0
712,1
713,0
714,0
715,0
716,0
717,1
718,1
719,1
720,1
721,0
722,0
723,0
724,0
725,0
726,0
727,0
728,0
729,0
730,1
731,0
732,0
733,0
734,0
735,1
736,1
737,1
738,0
739,0
740,0
741,0
742,1
743,1
744,1
745,1
746,0
747,0
748,1
749,0
750,0
751,1
752,0
753,0
754,0
755,0
756,0
757,0
758,1
759,1
760,1
761,0
762,0
763,0
764,0
765,1
766,0
767,0
768,1
769,1
770,1
771,1
772,1
773,1
774,0
775,0
776,0
777,0
778,1
779,1
780,1
781,0
782,0
783,0
784,1
785,1
786,1
787,1
788,0
789,1
790,0
791,1
792,1
793,1
794,1
795,1
796,1
797,0
798,0
799,0
800,0
801,0
802,1
803,1
804,0
805,0
806,0
807,0
808,0
809,0
810,0
811,0
812,0
813,0
814,0
815,0
816,0
817,0
818,0
819,1
820,1
821,1
822,0
823,0
824,0
825,1
826,0
827,0
828,0
829,0
830,0
831,0
832,1
833,1
834,1
835,0
836,0
837,0
838,0
839,0
840,0
841,0
842,1
843,1
844,0
845,0
846,1
847,0
848,0
849,1
850,1
851,1
852,1
853,1
854,1
855,0
856,0
857,0
858,0
859,0
860,0
861,0
862,0
863,0
864,0
865,0
866,0
867,0
868,0
869,0
870,1
871,0
872,0
873,0
874,0
875,0
876,0
877,0
878,0
879,0
880,0
881,0
882,0
883,0
884,0
885,0
886,0
887,1
888,0
889,0
890,1
891,1
892,1
893,1
894,1
895,1
896,1
897,0
898,0
899,1
900,1
901,1
902,1
903,1
904,1
905,1
906,1
907,1
908,0
909,1
910,1
911,1
912,1
913,0
914,0
915,0
916,0
917,0
918,0
919,0
920,0
921,0
922,1
923,1
924,1
925,0
926,0
927,1
928,1
929,1
930,1
931,0
932,1
933,1
934,1
935,1
936,1
937,1
938,1
939,1
940,1
941,0
942,1
943,1
944,0
945,0
946,0
947,0
948,0
949,0
950,1
951,0
952,0
953,0
954,0
955,1
956,0
957,0
958,0
959,0
960,0
961,0
962,1
963,0
964,0
965,0
966,0
967,0
968,0
969,0
970,1
971,1
972,0
973,0
974,0
975,0
976,0
977,0
978,0
979,0
980,0
981,0
982,0
983,0
984,0
985,0
986,0
987,0
988,1
989,1
990,1
991,1
992,1
993,1
994,1
995,1
996,1
997,1
998,1
999,0
1000,0
1001,0
1002,0
1003,1
1004,0
1005,0
1006,0
1007,0
1008,0
1009,0
1010,0
1011,1
1012,0
1013,0
1014,0
1015,1
1016,0
1017,1
1018,0
1019,0
1020,0
1021,0
1022,1
1023,1
1024,1
1025,1
1026,0
1027,0
1028,0
1029,0
1030,0
1031,1
1032,1
1033,0
1034,1
1035,0
1036,0
1037,0
1038,0
1039,0
1040,0
1041,0
1042,0
1043,1
1044,0
1045,0
1046,0
1047,1
1048,0
1049,0
1050,0
1051,0
1052,0
1053,0
1054,0
1055,0
1056,0
1057,0
1058,0
1059,1
1060,0
1061,0
1062,1
1063,1
1064,0
1065,0
1066,0
1067,0
1068,0
1069,0
1070,0
1071,0
1072,0
1073,1
1074,1
1075,1
1076,1
1077,0
1078,0
1079,0
1080,0
1081,1
1082,1
1083,1
1084,1
1085,0
1086,0
1087,0
1088,0
1089,1
1090,1
1091,0
1092,0
1093,0
1094,0
1095,1
1096,1
1097,0
1098,0
1099,0
1100,0
1101,0
1102,0
1103,0
1104,0
1105,0
1106,0
1107,0
1108,0
1109,0
1110,0
1111,0
1112,0
1113,0
1114,0
1115,1
1116,0
1117,0
1118,0
1119,0
1120,0
1121,0
1122,0
1123,0
1124,0
1125,1
1126,0
1127,0
1128,0
1129,0
1130,1
1131,1
1132,0
1133,0
1134,0
1135,0
1136,0
1137,0
1138,0
1139,0
1140,0
1141,0
1142,0
1143,0
1144,0
1145,0
1146,0
1147,0
1148,0
1149,0
1150,0
1151,0
1152,0
1153,0
1154,0
1155,0
1156,0
1157,0
1158,1
1159,1
1160,1
1161,0
1162,1
1163,1
1164,1
1165,0
1166,0
1167,0
1168,0
1169,1
1170,0
1171,1
1172,0
1173,1
1174,1
1175,1
1176,1
1177,1
1178,1
1179,1
1180,1
1181,0
1182,1
1183,1
1184,0
1185,0
1186,1
1187,0
1188,1
1189,0
1190,1
1191,0
1192,0
1193,1
1194,1
